10
1 0 79
2 0 23
2 1 8
3 0 35
3 1 25
3 2 78
4 0 55
4 1 47
4 2 15
4 3 43
5 0 58
5 1 41
5 2 71
5 3 8
6 1 38
6 2 38
6 3 19
6 4 37
7 0 59
7 1 3
7 2 42
7 3 15
7 4 24
7 6 30
8 0 75
8 1 64
8 2 39
8 3 22
8 4 1
8 5 48
8 6 52
8 7 32
9 0 49
9 1 1
9 2 13
9 3 54
9 4 25
9 5 8
9 7 61
9 8 49
